<instance format="XCSP3" type="CSP">
  <variables>
    <array id="x" size="[252]"> 0 1 </array>
  </variables>
  <constraints>
    <group>
      <sum>
        <list> %... </list>
        <coeffs> -1 1 1 1 1 1 1 </coeffs>
        <condition> (ge,0) </condition>
      </sum>
      <args> x[18] x[192..197] </args>
      <args> x[134] x[216..221] </args>
      <args> x[80] x[228..233] </args>
      <args> x[59] x[186..191] </args>
      <args> x[22] x[216..221] </args>
      <args> x[63] x[210..215] </args>
      <args> x[159] x[198..203] </args>
      <args> x[149] x[222..227] </args>
      <args> x[53] x[234..239] </args>
      <args> x[141] x[174..179] </args>
      <args> x[103] x[198..203] </args>
      <args> x[99] x[174..179] </args>
      <args> x[123] x[234..239] </args>
      <args> x[47] x[198..203] </args>
      <args> x[155] x[174..179] </args>
      <args> x[71] x[174..179] </args>
      <args> x[167] x[246..251] </args>
      <args> x[12] x[240..245] </args>
      <args> x[49] x[210..215] </args>
      <args> x[20] x[204..209] </args>
      <args> x[75] x[198..203] </args>
      <args> x[38] x[228..233] </args>
      <args> x[8] x[216..221] </args>
      <args> x[147] x[210..215] </args>
      <args> x[17] x[186..191] </args>
      <args> x[117] x[198..203] </args>
      <args> x[158] x[192..197] </args>
      <args> x[130] x[192..197] </args>
      <args> x[14] x[168..173] </args>
      <args> x[3] x[186..191] </args>
      <args> x[143] x[186..191] </args>
      <args> x[55] x[246..251] </args>
      <args> x[83] x[246..251] </args>
      <args> x[66] x[228..233] </args>
      <args> x[50] x[216..221] </args>
      <args> x[57] x[174..179] </args>
      <args> x[2] x[180..185] </args>
      <args> x[109] x[234..239] </args>
      <args> x[142] x[180..185] </args>
      <args> x[82] x[240..245] </args>
      <args> x[114] x[180..185] </args>
      <args> x[112] x[168..173] </args>
      <args> x[48] x[204..209] </args>
      <args> x[56] x[168..173] </args>
      <args> x[127] x[174..179] </args>
      <args> x[89] x[198..203] </args>
      <args> x[150] x[228..233] </args>
      <args> x[135] x[222..227] </args>
      <args> x[41] x[246..251] </args>
      <args> x[121] x[222..227] </args>
      <args> x[44] x[180..185] </args>
      <args> x[84] x[168..173] </args>
      <args> x[74] x[192..197] </args>
      <args> x[153] x[246..251] </args>
      <args> x[104] x[204..209] </args>
      <args> x[137] x[234..239] </args>
      <args> x[10] x[228..233] </args>
      <args> x[94] x[228..233] </args>
      <args> x[70] x[168..173] </args>
      <args> x[101] x[186..191] </args>
      <args> x[144] x[192..197] </args>
      <args> x[133] x[210..215] </args>
      <args> x[73] x[186..191] </args>
      <args> x[68] x[240..245] </args>
      <args> x[28] x[168..173] </args>
      <args> x[67] x[234..239] </args>
      <args> x[11] x[234..239] </args>
      <args> x[124] x[240..245] </args>
      <args> x[129] x[186..191] </args>
      <args> x[97] x[246..251] </args>
      <args> x[27] x[246..251] </args>
      <args> x[34] x[204..209] </args>
      <args> x[90] x[204..209] </args>
      <args> x[85] x[174..179] </args>
      <args> x[87] x[186..191] </args>
      <args> x[39] x[234..239] </args>
      <args> x[52] x[228..233] </args>
      <args> x[1] x[174..179] </args>
      <args> x[105] x[210..215] </args>
      <args> x[37] x[222..227] </args>
      <args> x[65] x[222..227] </args>
      <args> x[136] x[228..233] </args>
      <args> x[35] x[210..215] </args>
      <args> x[36] x[216..221] </args>
      <args> x[164] x[228..233] </args>
      <args> x[119] x[210..215] </args>
      <args> x[120] x[216..221] </args>
      <args> x[102] x[192..197] </args>
      <args> x[62] x[204..209] </args>
      <args> x[32] x[192..197] </args>
      <args> x[122] x[228..233] </args>
      <args> x[60] x[192..197] </args>
      <args> x[138] x[240..245] </args>
      <args> x[116] x[192..197] </args>
      <args> x[113] x[174..179] </args>
      <args> x[33] x[198..203] </args>
      <args> x[115] x[186..191] </args>
      <args> x[145] x[198..203] </args>
      <args> x[24] x[228..233] </args>
      <args> x[45] x[186..191] </args>
      <args> x[31] x[186..191] </args>
      <args> x[131] x[198..203] </args>
      <args> x[79] x[222..227] </args>
      <args> x[146] x[204..209] </args>
      <args> x[163] x[222..227] </args>
      <args> x[157] x[186..191] </args>
      <args> x[139] x[246..251] </args>
      <args> x[165] x[234..239] </args>
      <args> x[125] x[246..251] </args>
      <args> x[128] x[180..185] </args>
      <args> x[140] x[168..173] </args>
      <args> x[9] x[222..227] </args>
      <args> x[26] x[240..245] </args>
      <args> x[58] x[180..185] </args>
      <args> x[46] x[192..197] </args>
      <args> x[166] x[240..245] </args>
      <args> x[40] x[240..245] </args>
      <args> x[152] x[240..245] </args>
      <args> x[98] x[168..173] </args>
      <args> x[92] x[216..221] </args>
      <args> x[13] x[246..251] </args>
      <args> x[88] x[192..197] </args>
      <args> x[162] x[216..221] </args>
      <args> x[78] x[216..221] </args>
      <args> x[106] x[216..221] </args>
      <args> x[4] x[192..197] </args>
      <args> x[54] x[240..245] </args>
      <args> x[16] x[180..185] </args>
      <args> x[15] x[174..179] </args>
      <args> x[108] x[228..233] </args>
      <args> x[5] x[198..203] </args>
      <args> x[161] x[210..215] </args>
      <args> x[148] x[216..221] </args>
      <args> x[19] x[198..203] </args>
      <args> x[25] x[234..239] </args>
      <args> x[160] x[204..209] </args>
      <args> x[51] x[222..227] </args>
      <args> x[72] x[180..185] </args>
      <args> x[126] x[168..173] </args>
      <args> x[151] x[234..239] </args>
      <args> x[110] x[240..245] </args>
      <args> x[42] x[168..173] </args>
      <args> x[81] x[234..239] </args>
      <args> x[23] x[222..227] </args>
      <args> x[6] x[204..209] </args>
      <args> x[93] x[222..227] </args>
      <args> x[86] x[180..185] </args>
      <args> x[7] x[210..215] </args>
      <args> x[61] x[198..203] </args>
      <args> x[43] x[174..179] </args>
      <args> x[95] x[234..239] </args>
      <args> x[111] x[246..251] </args>
      <args> x[77] x[210..215] </args>
      <args> x[132] x[204..209] </args>
      <args> x[0] x[168..173] </args>
      <args> x[96] x[240..245] </args>
      <args> x[118] x[204..209] </args>
      <args> x[76] x[204..209] </args>
      <args> x[30] x[180..185] </args>
      <args> x[64] x[216..221] </args>
      <args> x[91] x[210..215] </args>
      <args> x[154] x[168..173] </args>
      <args> x[156] x[180..185] </args>
      <args> x[100] x[180..185] </args>
      <args> x[107] x[222..227] </args>
      <args> x[21] x[210..215] </args>
      <args> x[29] x[174..179] </args>
      <args> x[69] x[246..251] </args>
    </group>
    <group>
      <sum>
        <list> %... </list>
        <condition> (ge,1) </condition>
      </sum>
      <args> x[126..139] </args>
      <args> x[42..55] </args>
      <args> x[98..111] </args>
      <args> x[84..97] </args>
      <args> x[14..27] </args>
      <args> x[112..125] </args>
      <args> x[56..69] </args>
      <args> x[28..41] </args>
      <args> x[70..83] </args>
      <args> x[0..13] </args>
      <args> x[140..153] </args>
      <args> x[154..167] </args>
    </group>
    <group>
      <sum>
        <list> %... </list>
        <coeffs> -1 -1 -1 -1 -1 -1 -1 -1 -1 -1 -1 -1 </coeffs>
        <condition> (ge,-1) </condition>
      </sum>
      <args> x[0] x[14] x[28] x[42] x[56] x[70] x[84] x[98] x[112] x[126] x[140] x[154] </args>
      <args> x[1] x[15] x[29] x[43] x[57] x[71] x[85] x[99] x[113] x[127] x[141] x[155] </args>
      <args> x[2] x[16] x[30] x[44] x[58] x[72] x[86] x[100] x[114] x[128] x[142] x[156] </args>
      <args> x[3] x[17] x[31] x[45] x[59] x[73] x[87] x[101] x[115] x[129] x[143] x[157] </args>
      <args> x[4] x[18] x[32] x[46] x[60] x[74] x[88] x[102] x[116] x[130] x[144] x[158] </args>
      <args> x[5] x[19] x[33] x[47] x[61] x[75] x[89] x[103] x[117] x[131] x[145] x[159] </args>
      <args> x[6] x[20] x[34] x[48] x[62] x[76] x[90] x[104] x[118] x[132] x[146] x[160] </args>
      <args> x[7] x[21] x[35] x[49] x[63] x[77] x[91] x[105] x[119] x[133] x[147] x[161] </args>
      <args> x[8] x[22] x[36] x[50] x[64] x[78] x[92] x[106] x[120] x[134] x[148] x[162] </args>
      <args> x[9] x[23] x[37] x[51] x[65] x[79] x[93] x[107] x[121] x[135] x[149] x[163] </args>
      <args> x[10] x[24] x[38] x[52] x[66] x[80] x[94] x[108] x[122] x[136] x[150] x[164] </args>
      <args> x[11] x[25] x[39] x[53] x[67] x[81] x[95] x[109] x[123] x[137] x[151] x[165] </args>
      <args> x[12] x[26] x[40] x[54] x[68] x[82] x[96] x[110] x[124] x[138] x[152] x[166] </args>
      <args> x[13] x[27] x[41] x[55] x[69] x[83] x[97] x[111] x[125] x[139] x[153] x[167] </args>
    </group>
    <group>
      <sum>
        <list> %... </list>
        <coeffs> -1 -1 -1 -1 -1 -1 -1 </coeffs>
        <condition> (ge,-1) </condition>
      </sum>
      <args> x[168] x[174] x[180] x[186] x[192] x[198] x[204] </args>
      <args> x[169] x[175] x[181] x[187] x[193] x[199] x[205] </args>
      <args> x[170] x[176] x[182] x[188] x[194] x[200] x[206] </args>
      <args> x[171] x[177] x[183] x[189] x[195] x[201] x[207] </args>
      <args> x[172] x[178] x[184] x[190] x[196] x[202] x[208] </args>
      <args> x[173] x[179] x[185] x[191] x[197] x[203] x[209] </args>
      <args> x[210] x[216] x[222] x[228] x[234] x[240] x[246] </args>
      <args> x[211] x[217] x[223] x[229] x[235] x[241] x[247] </args>
      <args> x[212] x[218] x[224] x[230] x[236] x[242] x[248] </args>
      <args> x[213] x[219] x[225] x[231] x[237] x[243] x[249] </args>
      <args> x[214] x[220] x[226] x[232] x[238] x[244] x[250] </args>
      <args> x[215] x[221] x[227] x[233] x[239] x[245] x[251] </args>
    </group>
  </constraints>
</instance>

